0 21 11 18 14 10 40 24 4 9 32 28 2 30 48 17 31 27 38 22 16 1 37 20 36 13 29 5 8 25 19 39 46 49 15 12 7 26 43 35 41 6 23 34 45 42 47 44 3 33  
0 21 11 18 14 10 40 24 4 9 32 28 2 30 48 17 31 27 38 22 16 1 37 20 36 13 29 5 25 8 19 39 46 49 15 12 7 26 43 35 41 6 23 34 45 42 44 47 3 33  
0 21 11 18 14 10 40 24 9 4 32 28 31 7 48 17 2 38 22 15 1 37 41 5 30 20 3 19 26 36 27 16 13 35 8 39 46 49 12 34 43 6 29 47 45 25 23 42 44 33  
0 21 11 18 14 10 40 24 9 4 32 28 31 7 48 17 2 38 22 15 30 41 1 37 19 5 26 36 27 13 16 35 8 39 46 49 12 25 20 43 6 29 23 34 45 42 44 47 3 33  
0 21 11 18 14 10 40 24 9 4 32 28 31 30 48 17 2 7 38 22 15 1 37 19 5 16 27 36 13 35 8 39 46 49 25 12 41 26 20 43 6 29 23 34 45 42 44 47 3 33  
0 21 11 18 14 40 10 24 9 4 32 28 31 7 48 17 2 38 22 15 1 37 30 41 19 5 26 36 27 13 16 35 8 39 46 49 12 25 20 43 6 29 23 34 45 42 44 47 3 33  
0 21 11 18 14 10 40 24 9 4 32 28 31 34 48 17 2 3 38 22 15 1 37 30 19 5 7 27 16 12 13 20 35 8 46 26 36 49 43 39 29 25 41 6 23 45 42 44 47 33  
0 21 11 18 14 10 40 24 9 4 32 28 31 7 48 17 2 38 22 15 1 37 41 46 30 3 19 36 27 16 34 47 13 25 45 8 39 12 5 20 35 49 26 43 29 6 23 42 44 33  
0 21 11 18 14 10 40 24 9 4 32 28 31 7 48 17 2 38 22 15 1 37 30 3 5 20 41 19 27 16 34 47 13 35 49 6 46 8 26 36 12 43 39 29 45 25 23 42 44 33  
0 21 11 18 14 10 40 9 24 4 32 28 31 7 48 17 2 38 22 15 1 37 41 30 5 26 19 27 3 20 36 16 34 47 13 35 49 39 46 8 12 43 6 29 45 25 23 42 44 33  
0 21 11 18 14 10 40 24 9 4 32 28 31 30 48 17 2 38 22 15 1 37 41 5 7 20 3 19 42 16 34 47 13 35 49 39 46 8 26 36 12 43 6 29 45 25 23 27 44 33  
0 21 11 18 14 10 42 24 9 4 32 28 31 7 48 17 2 38 22 15 1 37 41 30 3 5 20 19 27 16 34 47 13 35 49 39 46 8 26 6 36 12 43 29 45 25 23 40 44 33  
0 21 11 18 14 10 40 24 9 4 32 28 31 30 48 17 2 38 22 15 1 37 41 5 7 20 3 19 42 16 34 47 13 35 49 39 46 8 26 36 12 43 45 29 6 25 23 27 44 33  
0 21 11 18 14 10 40 36 9 4 32 28 31 30 48 17 2 38 22 15 1 37 19 5 7 27 16 12 13 20 35 8 46 39 24 49 25 26 43 42 41 6 23 34 45 29 44 47 3 33  
